Traveling Salesman Problem/TSP_generados/Aleatorio1620390874_6.tsp
NAME: Aleatorio1620390874_6.tsp
COMMENT: Randomly generated scenario
TYPE: TSP
DIMENSION: 6
EDGE_WEIGHT_TYPE: ATT
NODE_COORD_SECTION
1 19.77 44.2
2 7.35 18.3
3 26.81 48.41
4 27.26 32.72
5 26.72 22.57
6 44.27 23.5
