Traveling Salesman Problem/TSP_generados/Aleatorio1620390874_6.opt.tour
NAME: Aleatorio1620390874_6.opt.tour
COMMENT: Optimal solution for Aleatorio1620390874_6 (109.38098344799796)
TYPE: TOUR
DIMENSION: 6
TOUR_SECTION
1 2 5 6 4 3
-1
EOF
